c Random 4-CNF over 150 variables and 30 clauses
c Generated with `cnfgen`
c (C) 2012-2018 Massimo Lauria <lauria.massimo@gmail.com>
c https://massimolauria.github.io/cnfgen
c
c COMMAND LINE: cnfgen -o 4/4_0.2000000000_3.cnf randkcnf 4 150 30
c
p cnf 150 30
-2 -4 -44 102 0
52 89 115 -143 0
9 28 -66 -94 0
-69 91 121 -126 0
22 -40 76 -111 0
-76 130 132 -144 0
-28 30 81 143 0
37 -96 106 121 0
-82 -90 -97 -137 0
6 31 82 137 0
24 104 -127 -145 0
48 -71 85 -144 0
-37 47 -61 -118 0
43 58 134 145 0
-2 19 90 -128 0
6 -47 82 -106 0
4 5 59 128 0
-69 112 -121 -133 0
-38 56 104 122 0
-90 98 120 141 0
-52 -68 75 -116 0
51 53 123 -142 0
44 49 -81 -145 0
90 -100 114 132 0
38 -41 104 131 0
-37 -42 -68 142 0
25 46 50 144 0
16 -84 113 143 0
7 79 -87 95 0
-44 71 -88 141 0
